l007.ib.bridges2.psc.edu
2024-12-08 17:33:49.856848
Set parameter Username
Set parameter LicenseID to value 762805
Set parameter TokenServer to value "br017.ib.bridges2.psc.edu"
Set parameter LogFile to value "result1354/grblogLCC_l007.ib.bridges2.psc.edu_RelaxFalse_N-1_PSPS_SpanFalse_PFlow_Lazy0_1354_inst8.txt"
Set parameter Cuts to value 0
Set parameter MIRCuts to value 2
Set parameter ImpliedCuts to value 2
Set parameter FlowCoverCuts to value 2
Set parameter ZeroHalfCuts to value 2
Set parameter ProjImpliedCuts to value 2
Set parameter GomoryPasses to value 100
Set parameter RelaxLiftCuts to value 2
Set parameter CoverCuts to value 2
Set parameter RLTCuts to value 2
Set parameter MIPFocus to value 3
Gurobi Optimizer version 11.0.2 build v11.0.2rc0 (linux64 - "Red Hat Enterprise Linux 8.10 (Ootpa)")

CPU model: AMD EPYC 7742 64-Core Processor, instruction set [SSE2|AVX|AVX2]
Thread count: 128 physical cores, 128 logical processors, using up to 32 threads

Optimize a model with 12418040 rows, 10522515 columns and 50896779 nonzeros
Model fingerprint: 0x03c01a1f
Variable types: 10519170 continuous, 3345 integer (3345 binary)
Coefficient statistics:
  Matrix range     [1e+00, 3e+03]
  Objective range  [1e+00, 1e+01]
  Bounds range     [1e+00, 1e+00]
  RHS range        [1e+00, 4e+04]
Presolve removed 893942 rows and 482 columns (presolve time = 5s) ...
Presolve removed 3821372 rows and 2561939 columns (presolve time = 10s) ...
Presolve removed 4320212 rows and 2894324 columns (presolve time = 15s) ...
Presolve removed 4425865 rows and 2965646 columns (presolve time = 20s) ...
Presolve removed 4439136 rows and 2973589 columns (presolve time = 25s) ...
Presolve removed 4439136 rows and 2973589 columns (presolve time = 31s) ...
Presolve removed 4440108 rows and 2973589 columns (presolve time = 35s) ...
Presolve removed 4440108 rows and 2976551 columns (presolve time = 40s) ...
Presolve removed 5507198 rows and 5101106 columns (presolve time = 46s) ...
Presolve removed 5507198 rows and 5491290 columns (presolve time = 50s) ...
Presolve removed 5507972 rows and 5492062 columns (presolve time = 55s) ...
Presolve removed 5511592 rows and 5492063 columns (presolve time = 60s) ...
Presolve removed 5511592 rows and 5492063 columns (presolve time = 65s) ...
Presolve removed 5511592 rows and 5492063 columns (presolve time = 70s) ...
Presolve removed 5511592 rows and 5492063 columns (presolve time = 75s) ...
Presolve removed 5511592 rows and 5492063 columns (presolve time = 80s) ...
Presolve removed 5511592 rows and 5492063 columns (presolve time = 85s) ...
Presolve removed 5511592 rows and 5492063 columns (presolve time = 90s) ...
Presolve removed 5511592 rows and 5492063 columns (presolve time = 95s) ...
Presolve removed 5511592 rows and 5492063 columns (presolve time = 100s) ...
Presolve removed 5511592 rows and 5492063 columns (presolve time = 105s) ...
Presolve removed 5511592 rows and 5492063 columns (presolve time = 110s) ...
Presolve removed 5511592 rows and 5492063 columns (presolve time = 115s) ...
Presolve removed 5511592 rows and 5492063 columns (presolve time = 120s) ...
Presolve removed 5511592 rows and 5492063 columns (presolve time = 125s) ...
Presolve removed 5511592 rows and 5492063 columns (presolve time = 130s) ...
Presolve removed 5511592 rows and 5492063 columns (presolve time = 135s) ...
Presolve removed 5511592 rows and 5492304 columns (presolve time = 140s) ...
Presolve removed 5511592 rows and 5493242 columns (presolve time = 145s) ...
Presolve removed 5511592 rows and 5493678 columns (presolve time = 150s) ...
Presolve removed 5511592 rows and 5493686 columns (presolve time = 155s) ...
Presolve removed 5511592 rows and 5493686 columns (presolve time = 160s) ...
Presolve removed 5511592 rows and 5493686 columns (presolve time = 165s) ...
Presolve removed 5511592 rows and 5493698 columns (presolve time = 170s) ...
Presolve removed 5511592 rows and 5493698 columns (presolve time = 175s) ...
Presolve removed 5511592 rows and 5493698 columns (presolve time = 180s) ...
Presolve removed 5511592 rows and 5493698 columns (presolve time = 185s) ...
Presolve removed 5511592 rows and 5493698 columns (presolve time = 190s) ...
Presolve removed 5511592 rows and 5493698 columns (presolve time = 195s) ...
Presolve removed 5511592 rows and 5493698 columns (presolve time = 200s) ...
Presolve removed 5511592 rows and 5493698 columns (presolve time = 205s) ...
Presolve removed 5511592 rows and 5493698 columns (presolve time = 210s) ...
Presolve removed 5511592 rows and 5493702 columns (presolve time = 215s) ...
Presolve removed 5511592 rows and 5493720 columns (presolve time = 220s) ...
Presolve removed 5511592 rows and 5493720 columns (presolve time = 225s) ...
Presolve removed 5511592 rows and 5493720 columns (presolve time = 230s) ...
Presolve removed 5511592 rows and 5493736 columns (presolve time = 235s) ...
Presolve removed 5511592 rows and 5493745 columns (presolve time = 240s) ...
Presolve removed 5511592 rows and 5493753 columns (presolve time = 245s) ...
Presolve removed 5511592 rows and 5493757 columns (presolve time = 250s) ...
Presolve removed 7143628 rows and 5494476 columns (presolve time = 256s) ...
Presolve removed 7144368 rows and 5494534 columns (presolve time = 262s) ...
Presolve removed 7144368 rows and 5494534 columns (presolve time = 266s) ...
Presolve removed 7144835 rows and 5495212 columns (presolve time = 274s) ...
Presolve removed 7156011 rows and 5516921 columns (presolve time = 275s) ...
Presolve removed 7156119 rows and 5532829 columns (presolve time = 280s) ...
Presolve removed 7156550 rows and 5532829 columns (presolve time = 285s) ...
Presolve removed 7156550 rows and 5532829 columns (presolve time = 290s) ...
Presolve removed 7156550 rows and 5532829 columns (presolve time = 295s) ...
Presolve removed 7156550 rows and 5532829 columns (presolve time = 300s) ...
Presolve removed 7156550 rows and 5532829 columns (presolve time = 305s) ...
Presolve removed 7156550 rows and 5532829 columns (presolve time = 310s) ...
Presolve removed 7156550 rows and 5532829 columns (presolve time = 315s) ...
Presolve removed 7156550 rows and 5532829 columns (presolve time = 320s) ...
Presolve removed 7156550 rows and 5532829 columns (presolve time = 325s) ...
Presolve removed 7156550 rows and 5532829 columns (presolve time = 330s) ...
Presolve removed 7156550 rows and 5532829 columns (presolve time = 335s) ...
Presolve removed 7156550 rows and 5532829 columns (presolve time = 340s) ...
Presolve removed 7156550 rows and 5532829 columns (presolve time = 345s) ...
Presolve removed 7156550 rows and 5532829 columns (presolve time = 350s) ...
Presolve removed 7156550 rows and 5532887 columns (presolve time = 355s) ...
Presolve removed 7156550 rows and 5532970 columns (presolve time = 360s) ...
Presolve removed 7156550 rows and 5532984 columns (presolve time = 365s) ...
Presolve removed 7156550 rows and 5532984 columns (presolve time = 370s) ...
Presolve removed 7156550 rows and 5532984 columns (presolve time = 375s) ...
Presolve removed 7156550 rows and 5532984 columns (presolve time = 380s) ...
Presolve removed 7156550 rows and 5532986 columns (presolve time = 385s) ...
Presolve removed 7156550 rows and 5532986 columns (presolve time = 390s) ...
Presolve removed 7156550 rows and 5532986 columns (presolve time = 395s) ...
Presolve removed 7156550 rows and 5532986 columns (presolve time = 400s) ...
Presolve removed 7156550 rows and 5532986 columns (presolve time = 405s) ...
Presolve removed 7156550 rows and 5532986 columns (presolve time = 410s) ...
Presolve removed 7156550 rows and 5532986 columns (presolve time = 415s) ...
Presolve removed 7156550 rows and 5532986 columns (presolve time = 420s) ...
Presolve removed 7156550 rows and 5532986 columns (presolve time = 425s) ...
Presolve removed 7156550 rows and 5532986 columns (presolve time = 430s) ...
Presolve removed 7156550 rows and 5532986 columns (presolve time = 435s) ...
Presolve removed 7156550 rows and 5532998 columns (presolve time = 440s) ...
Presolve removed 7156550 rows and 5532998 columns (presolve time = 445s) ...
Presolve removed 7156550 rows and 5532998 columns (presolve time = 450s) ...
Presolve removed 7156550 rows and 5532998 columns (presolve time = 455s) ...
Presolve removed 7180912 rows and 5533071 columns (presolve time = 461s) ...
Presolve removed 7180965 rows and 5533071 columns (presolve time = 466s) ...
Presolve removed 7186262 rows and 5543700 columns (presolve time = 470s) ...
Presolve removed 7186288 rows and 5543700 columns (presolve time = 475s) ...
Presolve removed 7186288 rows and 5543700 columns (presolve time = 480s) ...
Presolve removed 7186288 rows and 5543700 columns (presolve time = 485s) ...
Presolve removed 7186288 rows and 5543700 columns (presolve time = 490s) ...
Presolve removed 7186288 rows and 5543700 columns (presolve time = 495s) ...
Presolve removed 7186288 rows and 5543700 columns (presolve time = 500s) ...
Presolve removed 7186288 rows and 5543700 columns (presolve time = 505s) ...
Presolve removed 7186288 rows and 5543700 columns (presolve time = 510s) ...
Presolve removed 7186288 rows and 5543700 columns (presolve time = 515s) ...
Presolve removed 7186288 rows and 5543700 columns (presolve time = 520s) ...
Presolve removed 7186288 rows and 5543700 columns (presolve time = 525s) ...
Presolve removed 7186288 rows and 5543700 columns (presolve time = 530s) ...
Presolve removed 7186288 rows and 5543700 columns (presolve time = 535s) ...
Presolve removed 7186288 rows and 5543700 columns (presolve time = 540s) ...
Presolve removed 7186288 rows and 5543700 columns (presolve time = 545s) ...
Presolve removed 7186288 rows and 5543700 columns (presolve time = 550s) ...
Presolve removed 7186288 rows and 5543709 columns (presolve time = 555s) ...
Presolve removed 7186288 rows and 5543709 columns (presolve time = 560s) ...
Presolve removed 7186288 rows and 5543709 columns (presolve time = 565s) ...
Presolve removed 7186288 rows and 5543709 columns (presolve time = 570s) ...
Presolve removed 7186288 rows and 5543709 columns (presolve time = 575s) ...
Presolve removed 7186288 rows and 5543709 columns (presolve time = 580s) ...
Presolve removed 7186288 rows and 5543709 columns (presolve time = 585s) ...
Presolve removed 7186288 rows and 5543709 columns (presolve time = 590s) ...
Presolve removed 7186288 rows and 5543709 columns (presolve time = 595s) ...
Presolve removed 7186288 rows and 5543709 columns (presolve time = 600s) ...
Presolve removed 7186288 rows and 5543709 columns (presolve time = 605s) ...
Presolve removed 7186288 rows and 5543709 columns (presolve time = 610s) ...
Presolve removed 7186288 rows and 5543709 columns (presolve time = 615s) ...
Presolve removed 7186288 rows and 5543709 columns (presolve time = 620s) ...
Presolve removed 7186288 rows and 5543709 columns (presolve time = 625s) ...
Presolve removed 7186288 rows and 5543709 columns (presolve time = 630s) ...
Presolve removed 7186288 rows and 5543709 columns (presolve time = 635s) ...
Presolve removed 7186288 rows and 5543709 columns (presolve time = 640s) ...
Presolve removed 7186288 rows and 5543709 columns (presolve time = 645s) ...
Presolve removed 7191592 rows and 5543713 columns (presolve time = 650s) ...
Presolve removed 7191597 rows and 5543728 columns (presolve time = 655s) ...
Presolve removed 7191602 rows and 5543728 columns (presolve time = 660s) ...
Presolve removed 7191602 rows and 5543728 columns (presolve time = 665s) ...
Presolve removed 7191602 rows and 5543728 columns (presolve time = 670s) ...
Presolve removed 7191602 rows and 5543728 columns (presolve time = 675s) ...
Presolve removed 7191602 rows and 5543728 columns (presolve time = 680s) ...
Presolve removed 7191602 rows and 5543728 columns (presolve time = 685s) ...
Presolve removed 7191602 rows and 5543728 columns (presolve time = 690s) ...
Presolve removed 7191602 rows and 5543728 columns (presolve time = 695s) ...
Presolve removed 7191602 rows and 5543728 columns (presolve time = 700s) ...
Presolve removed 7191602 rows and 5543728 columns (presolve time = 705s) ...
Presolve removed 7191602 rows and 5543728 columns (presolve time = 710s) ...
Presolve removed 7191602 rows and 5543728 columns (presolve time = 715s) ...
Presolve removed 7191604 rows and 5543728 columns (presolve time = 721s) ...
Presolve removed 7191604 rows and 5543728 columns (presolve time = 725s) ...
Presolve removed 7361021 rows and 5697515 columns (presolve time = 730s) ...
Presolve removed 7361022 rows and 5697558 columns (presolve time = 735s) ...
Presolve removed 7361022 rows and 5697558 columns (presolve time = 740s) ...
Presolve removed 7364186 rows and 5697920 columns (presolve time = 745s) ...
Presolve removed 7364188 rows and 5697922 columns (presolve time = 751s) ...
Presolve removed 7724227 rows and 5698306 columns (presolve time = 756s) ...
Presolve removed 7724264 rows and 5698376 columns (presolve time = 761s) ...
Presolve removed 7724264 rows and 5698376 columns (presolve time = 765s) ...
Presolve removed 7724264 rows and 5698376 columns (presolve time = 770s) ...
Presolve removed 7724264 rows and 5698376 columns (presolve time = 775s) ...
Presolve removed 7724264 rows and 5698376 columns (presolve time = 780s) ...
Presolve removed 7724264 rows and 5698376 columns (presolve time = 785s) ...
Presolve removed 7724264 rows and 5698376 columns (presolve time = 790s) ...
Presolve removed 7724264 rows and 5698376 columns (presolve time = 795s) ...
Presolve removed 7724264 rows and 5698376 columns (presolve time = 800s) ...
Presolve removed 7724264 rows and 5698376 columns (presolve time = 805s) ...
Presolve removed 7724264 rows and 5698376 columns (presolve time = 810s) ...
Presolve removed 7724264 rows and 5698376 columns (presolve time = 815s) ...
Presolve removed 7724264 rows and 5698376 columns (presolve time = 820s) ...
Presolve removed 7724264 rows and 5698376 columns (presolve time = 825s) ...
Presolve removed 7724264 rows and 5698376 columns (presolve time = 830s) ...
Presolve removed 7724264 rows and 5698376 columns (presolve time = 835s) ...
Presolve removed 7724264 rows and 5698376 columns (presolve time = 840s) ...
Presolve removed 7724264 rows and 5698378 columns (presolve time = 845s) ...
Presolve removed 7724264 rows and 5698407 columns (presolve time = 850s) ...
Presolve removed 7724264 rows and 5698453 columns (presolve time = 855s) ...
Presolve removed 7724264 rows and 5698473 columns (presolve time = 860s) ...
Presolve removed 7724264 rows and 5698502 columns (presolve time = 865s) ...
Presolve removed 7724264 rows and 5698511 columns (presolve time = 870s) ...
Presolve removed 7724264 rows and 5698511 columns (presolve time = 875s) ...
Presolve removed 7724264 rows and 5698511 columns (presolve time = 880s) ...
Presolve removed 7724264 rows and 5698511 columns (presolve time = 885s) ...
Presolve removed 7724264 rows and 5698511 columns (presolve time = 890s) ...
Presolve removed 7724264 rows and 5698511 columns (presolve time = 895s) ...
Presolve removed 7724264 rows and 5698511 columns (presolve time = 900s) ...
Presolve removed 7724264 rows and 5698511 columns (presolve time = 905s) ...
Presolve removed 7724264 rows and 5698511 columns (presolve time = 910s) ...
Presolve removed 7724264 rows and 5698511 columns (presolve time = 915s) ...
Presolve removed 7724264 rows and 5698511 columns (presolve time = 920s) ...
Presolve removed 7724264 rows and 5698511 columns (presolve time = 925s) ...
Presolve removed 7724264 rows and 5698511 columns (presolve time = 930s) ...
Presolve removed 7724264 rows and 5698511 columns (presolve time = 935s) ...
Presolve removed 7724264 rows and 5698523 columns (presolve time = 940s) ...
Presolve removed 7724264 rows and 5698523 columns (presolve time = 945s) ...
Presolve removed 7724264 rows and 5698523 columns (presolve time = 950s) ...
Presolve removed 7726320 rows and 5698532 columns (presolve time = 956s) ...
Presolve removed 7726366 rows and 5698532 columns (presolve time = 960s) ...
Presolve removed 7726385 rows and 5698578 columns (presolve time = 965s) ...
Presolve removed 7726385 rows and 5698578 columns (presolve time = 970s) ...
Presolve removed 7726385 rows and 5698578 columns (presolve time = 975s) ...
Presolve removed 7726385 rows and 5698578 columns (presolve time = 980s) ...
Presolve removed 7726385 rows and 5698578 columns (presolve time = 985s) ...
Presolve removed 7726385 rows and 5698578 columns (presolve time = 990s) ...
Presolve removed 7726385 rows and 5698578 columns (presolve time = 995s) ...
Presolve removed 7726385 rows and 5698578 columns (presolve time = 1000s) ...
Presolve removed 7726385 rows and 5698578 columns (presolve time = 1005s) ...
Presolve removed 7726385 rows and 5698578 columns (presolve time = 1010s) ...
Presolve removed 7726385 rows and 5698578 columns (presolve time = 1015s) ...
Presolve removed 7726385 rows and 5698578 columns (presolve time = 1020s) ...
Presolve removed 7726385 rows and 5698578 columns (presolve time = 1025s) ...
Presolve removed 7726385 rows and 5698578 columns (presolve time = 1030s) ...
Presolve removed 7726385 rows and 5698578 columns (presolve time = 1035s) ...
Presolve removed 7726385 rows and 5698578 columns (presolve time = 1040s) ...
Presolve removed 7726385 rows and 5698578 columns (presolve time = 1045s) ...
Presolve removed 7726385 rows and 5698582 columns (presolve time = 1050s) ...
Presolve removed 7726385 rows and 5698594 columns (presolve time = 1055s) ...
Presolve removed 7726385 rows and 5698603 columns (presolve time = 1060s) ...
Presolve removed 7726385 rows and 5698612 columns (presolve time = 1065s) ...
Presolve removed 7726385 rows and 5698633 columns (presolve time = 1070s) ...
Presolve removed 7726385 rows and 5698633 columns (presolve time = 1075s) ...
Presolve removed 7726385 rows and 5698633 columns (presolve time = 1080s) ...
Presolve removed 7726385 rows and 5698633 columns (presolve time = 1085s) ...
Presolve removed 7726385 rows and 5698633 columns (presolve time = 1090s) ...
Presolve removed 7726385 rows and 5698633 columns (presolve time = 1095s) ...
Presolve removed 7726385 rows and 5698633 columns (presolve time = 1100s) ...
Presolve removed 7726385 rows and 5698633 columns (presolve time = 1105s) ...
Presolve removed 7726385 rows and 5698633 columns (presolve time = 1110s) ...
Presolve removed 7726385 rows and 5698633 columns (presolve time = 1115s) ...
Presolve removed 7726385 rows and 5698633 columns (presolve time = 1120s) ...
Presolve removed 7726385 rows and 5698633 columns (presolve time = 1125s) ...
Presolve removed 7726385 rows and 5698633 columns (presolve time = 1130s) ...
Presolve removed 7726385 rows and 5698633 columns (presolve time = 1135s) ...
Presolve removed 7726385 rows and 5698633 columns (presolve time = 1140s) ...
Presolve removed 7726385 rows and 5698633 columns (presolve time = 1145s) ...
Presolve removed 7726385 rows and 5698633 columns (presolve time = 1150s) ...
Presolve removed 7726385 rows and 5698633 columns (presolve time = 1155s) ...
Presolve removed 7726426 rows and 5698633 columns (presolve time = 1160s) ...
Presolve removed 7726426 rows and 5698633 columns (presolve time = 1165s) ...
Presolve removed 7726426 rows and 5698633 columns (presolve time = 1170s) ...
Presolve removed 7726426 rows and 5698633 columns (presolve time = 1176s) ...
Presolve removed 7726435 rows and 5698632 columns
Presolve time: 1177.82s
Presolved: 4691605 rows, 4823883 columns, 23334812 nonzeros
Variable types: 4821801 continuous, 2082 integer (2082 binary)
Root relaxation presolve removed 104 rows and 93 columns (presolve time = 6s) ...
Root relaxation presolve removed 104 rows and 93 columns (presolve time = 10s) ...
Root relaxation presolve removed 104 rows and 93 columns (presolve time = 15s) ...
Root relaxation presolve removed 104 rows and 93 columns (presolve time = 20s) ...
Root relaxation presolve removed 104 rows and 93 columns (presolve time = 25s) ...
Root relaxation presolve removed 104 rows and 93 columns (presolve time = 30s) ...
Root relaxation presolve removed 104 rows and 93 columns (presolve time = 35s) ...
Root relaxation presolve removed 104 rows and 93 columns (presolve time = 40s) ...
Root relaxation presolve removed 104 rows and 93 columns (presolve time = 45s) ...
Root relaxation presolve removed 104 rows and 93 columns (presolve time = 50s) ...
Root relaxation presolve removed 104 rows and 93 columns (presolve time = 55s) ...
Root relaxation presolve removed 104 rows and 93 columns (presolve time = 60s) ...
Root relaxation presolve removed 104 rows and 93 columns (presolve time = 65s) ...
Root relaxation presolve removed 216 rows and 93 columns (presolve time = 71s) ...
Root relaxation presolve removed 2823 rows and 121 columns (presolve time = 75s) ...
Root relaxation presolve removed 2823 rows and 121 columns (presolve time = 80s) ...
Root relaxation presolve removed 2823 rows and 121 columns (presolve time = 85s) ...
Root relaxation presolve removed 2823 rows and 121 columns (presolve time = 90s) ...
Root relaxation presolve removed 2823 rows and 121 columns (presolve time = 95s) ...
Root relaxation presolve removed 2823 rows and 121 columns (presolve time = 100s) ...
Root relaxation presolve removed 2823 rows and 121 columns (presolve time = 105s) ...
Root relaxation presolve removed 2823 rows and 121 columns (presolve time = 110s) ...
Root relaxation presolve removed 2823 rows and 121 columns (presolve time = 115s) ...
Root relaxation presolve removed 2823 rows and 121 columns (presolve time = 120s) ...
Root relaxation presolve removed 2823 rows and 121 columns (presolve time = 125s) ...
Root relaxation presolve removed 2823 rows and 121 columns (presolve time = 130s) ...
Root relaxation presolve removed 2823 rows and 121 columns (presolve time = 135s) ...
Root relaxation presolve removed 2823 rows and 121 columns (presolve time = 140s) ...
Root relaxation presolve removed 2823 rows and 121 columns (presolve time = 145s) ...
Root relaxation presolve removed 2823 rows and 121 columns (presolve time = 150s) ...
Root relaxation presolve removed 2823 rows and 121 columns
Root relaxation presolved: 4688782 rows, 4823762 columns, 23288910 nonzeros

Deterministic concurrent LP optimizer: primal simplex, dual simplex, and barrier
Showing barrier log only...

Root barrier log...

Elapsed ordering time = 5s
Ordering time: 8.34s

Barrier statistics:
 Dense cols : 1962
 AA' NZ     : 2.050e+07
 Factor NZ  : 2.232e+08 (roughly 6.0 GB of memory)
 Factor Ops : 1.126e+11 (roughly 1 second per iteration)
 Threads    : 30

                  Objective                Residual
Iter       Primal          Dual         Primal    Dual     Compl     Time
   0   2.08852787e+05 -4.55647063e+07  1.70e+04 1.71e+00  2.69e+02  1380s
   1   2.10373443e+05 -4.56090219e+07  1.60e+04 5.69e+00  2.46e+02  1384s
   2   2.00514007e+05 -4.47968288e+07  1.23e+04 1.46e+00  1.67e+02  1388s
   3   1.71482432e+05 -4.42453862e+07  7.99e+03 3.88e+01  1.05e+02  1393s
   4   7.68900075e+04 -4.26769376e+07  3.29e+03 2.81e+02  4.40e+01  1398s
   5   3.79583236e+04 -3.68268214e+07  1.33e+03 1.44e+02  1.76e+01  1401s
   6   2.18673255e+04 -2.65782403e+07  5.43e+02 1.11e+02  6.83e+00  1405s
   7   1.50414830e+04 -1.19865699e+07  2.17e+02 3.08e+02  2.11e+00  1408s
   8   1.16597613e+04 -5.04705039e+06  6.02e+01 9.01e+00  5.75e-01  1413s
   9   1.06124621e+04 -2.00186443e+06  1.38e+01 1.40e+00  1.73e-01  1419s
  10   1.04443293e+04 -7.77564290e+05  7.39e+00 4.75e-01  6.38e-02  1423s
  11   1.03512689e+04 -4.07984196e+05  4.09e+00 2.38e-01  3.28e-02  1428s
  12   1.03007249e+04 -2.13299665e+05  2.79e+00 1.22e-01  1.73e-02  1431s
  13   1.02176073e+04 -1.59770590e+05  1.80e+00 9.10e-02  1.30e-02  1435s
  14   1.00549490e+04 -9.50847388e+04  1.03e+00 5.28e-02  7.97e-03  1440s
  15   9.65486617e+03 -5.85823563e+04  3.37e-01 3.28e-02  5.13e-03  1445s
  16   9.05548565e+03 -3.99273296e+04  1.92e-01 2.33e-02  3.68e-03  1450s
  17   8.87185219e+03 -2.75670381e+04  1.72e-01 1.69e-02  2.73e-03  1454s
  18   8.58882265e+03 -2.42666555e+04  1.58e-01 1.51e-02  2.46e-03  1458s
  19   7.85800589e+03 -1.88013040e+04  1.26e-01 1.22e-02  2.00e-03  1462s
  20   7.25474623e+03 -1.45352816e+04  1.07e-01 1.00e-02  1.63e-03  1466s
  21   7.06277772e+03 -1.34921976e+04  1.01e-01 9.41e-03  1.54e-03  1471s
  22   6.84727105e+03 -1.13980693e+04  9.35e-02 8.33e-03  1.37e-03  1477s
  23   6.59281862e+03 -1.03377890e+04  8.53e-02 7.79e-03  1.27e-03  1483s

Barrier performed 23 iterations in 1482.61 seconds (1848.07 work units)
Barrier solve interrupted - model solved by another algorithm

Concurrent spin time: 42.11s (can be avoided by choosing Method=3)

Solved with dual simplex

Root simplex log...

Iteration    Objective       Primal Inf.    Dual Inf.      Time
  466664    2.9129292e+03   0.000000e+00   0.000000e+00   1485s

Root relaxation: objective 2.912929e+03, 466664 iterations, 297.38 seconds (112.58 work units)
Total elapsed time = 1512.73s (DegenMoves)
Total elapsed time = 1527.19s (DegenMoves)

    Nodes    |    Current Node    |     Objective Bounds      |     Work
 Expl Unexpl |  Obj  Depth IntInf | Incumbent    BestBd   Gap | It/Node Time

     0     0 2912.92916    0  324          - 2912.92916      -     - 1537s
     0     0 2915.62739    0  326          - 2915.62739      -     - 1541s
H    0     0                    3859.0000000 2915.62739  24.4%     - 1551s
H    0     0                    3852.0000000 2915.62739  24.3%     - 1560s
H    0     0                    3546.0000000 2915.62739  17.8%     - 1566s
     0     0 3199.02334    0  454 3546.00000 3199.02334  9.79%     - 1806s
     0     0 3273.43926    0  343 3546.00000 3273.43926  7.69%     - 2831s
     0     0 3275.46746    0  350 3546.00000 3275.46746  7.63%     - 3037s
     0     0 3308.34111    0  298 3546.00000 3308.34111  6.70%     - 3154s
     0     0 3309.34603    0  297 3546.00000 3309.34603  6.67%     - 3453s
     0     0 3316.39475    0  322 3546.00000 3316.39475  6.48%     - 3650s
     0     0 3316.80720    0  325 3546.00000 3316.80720  6.46%     - 3919s
     0     0 3316.80720    0  325 3546.00000 3316.80720  6.46%     - 3927s
     0     0 3321.49852    0  338 3546.00000 3321.49852  6.33%     - 4287s
     0     0 3322.05333    0  326 3546.00000 3322.05333  6.32%     - 4654s
     0     0 3322.05333    0  335 3546.00000 3322.05333  6.32%     - 4703s
     0     0 3326.31629    0  306 3546.00000 3326.31629  6.20%     - 5276s
     0     0 3326.47677    0  296 3546.00000 3326.47677  6.19%     - 5603s
     0     0 3326.47770    0  292 3546.00000 3326.47770  6.19%     - 5632s
     0     0 3328.66001    0  336 3546.00000 3328.66001  6.13%     - 5943s
     0     0 3328.69875    0  334 3546.00000 3328.69875  6.13%     - 6238s
     0     0 3330.41501    0  329 3546.00000 3330.41501  6.08%     - 6472s
     0     0 3330.98190    0  318 3546.00000 3330.98190  6.06%     - 6756s
     0     0 3330.98190    0  318 3546.00000 3330.98190  6.06%     - 6815s
     0     0 3332.11962    0  322 3546.00000 3332.11962  6.03%     - 7084s
     0     0 3332.22808    0  322 3546.00000 3332.22808  6.03%     - 7348s
     0     0 3332.23518    0  324 3546.00000 3332.23518  6.03%     - 7403s
     0     0 3333.05145    0  323 3546.00000 3333.05145  6.01%     - 7690s
     0     0 3333.23472    0  335 3546.00000 3333.23472  6.00%     - 7905s
     0     0 3333.23472    0  334 3546.00000 3333.23472  6.00%     - 7939s
     0     0 3333.86126    0  348 3546.00000 3333.86126  5.98%     - 8203s
     0     0 3333.94712    0  347 3546.00000 3333.94712  5.98%     - 8371s
     0     0 3333.94951    0  344 3546.00000 3333.94951  5.98%     - 8407s
     0     0 3334.12634    0  343 3546.00000 3334.12634  5.98%     - 8548s
     0     0 3334.19488    0  335 3546.00000 3334.19488  5.97%     - 8761s
     0     0 3334.21231    0  348 3546.00000 3334.21231  5.97%     - 8802s
     0     0 3334.67153    0  361 3546.00000 3334.67153  5.96%     - 9228s
     0     0 3334.69625    0  360 3546.00000 3334.69625  5.96%     - 9391s
     0     0 3334.94131    0  362 3546.00000 3334.94131  5.95%     - 9716s
     0     0 3334.95237    0  361 3546.00000 3334.95237  5.95%     - 10011s
     0     0 3334.95504    0  373 3546.00000 3334.95504  5.95%     - 10134s
     0     0 3334.96701    0  372 3546.00000 3334.96701  5.95%     - 10381s
     0     0 3334.99296    0  371 3546.00000 3334.99296  5.95%     - 10524s
     0     0 3335.16895    0  326 3546.00000 3335.16895  5.95%     - 11047s
H    0     0                    3434.0000000 3335.69042  2.86%     - 12805s
H    0     0                    3429.0000000 3335.69042  2.72%     - 12820s
     0     0 3335.69042    0  324 3429.00000 3335.69042  2.72%     - 13700s
     0     0 3335.69042    0  390 3429.00000 3335.69042  2.72%     - 14690s
     0     0 3335.69042    0  299 3429.00000 3335.69042  2.72%     - 15029s
     0     0 3335.69042    0  348 3429.00000 3335.69042  2.72%     - 15148s
     0     0 3335.69042    0  340 3429.00000 3335.69042  2.72%     - 15215s
     0     0 3335.69042    0  346 3429.00000 3335.69042  2.72%     - 15398s
     0     0 3335.69042    0  346 3429.00000 3335.69042  2.72%     - 15700s
     0     0 3335.69042    0  318 3429.00000 3335.69042  2.72%     - 15821s
     0     0 3335.69042    0  318 3429.00000 3335.69042  2.72%     - 15885s
     0     0 3335.69042    0  320 3429.00000 3335.69042  2.72%     - 16111s
     0     0 3335.77135    0  334 3429.00000 3335.77135  2.72%     - 16241s
     0     0 3335.77399    0  339 3429.00000 3335.77399  2.72%     - 16298s
     0     0 3335.82391    0  346 3429.00000 3335.82391  2.72%     - 16414s
     0     0 3335.84256    0  287 3429.00000 3335.84256  2.72%     - 16507s
     0     0 3335.84561    0  346 3429.00000 3335.84561  2.72%     - 16655s
     0     0 3335.86382    0  353 3429.00000 3335.86382  2.72%     - 16763s
     0     0 3335.91428    0  257 3429.00000 3335.91428  2.71%     - 16905s
     0     0 3336.07553    0  262 3429.00000 3336.07553  2.71%     - 17113s
     0     0 3336.07553    0  274 3429.00000 3336.07553  2.71%     - 18008s
     0     0 3336.14008    0  245 3429.00000 3336.14008  2.71%     - 18519s
H    0     0                    3404.0000000 3336.15325  1.99%     - 19585s
     0     2 3336.15325    0  243 3404.00000 3336.15325  1.99%     - 20065s
     1     4 3336.15325    1  230 3404.00000 3336.15325  1.99% 17015 20592s
     3     8 3336.30668    2  214 3404.00000 3336.30668  1.99% 30798 20982s
     7    16 3337.00386    3  231 3404.00000 3337.00386  1.97% 36857 21799s
    15    32 3337.57801    4  240 3404.00000 3337.57801  1.95% 36113 23167s
    31    64 3338.29189    5  255 3404.00000 3337.90013  1.94% 80275 23766s
H   37    64                    3401.0000000 3338.30332  1.84% 69899 23767s
    63    95 3339.16555    6  251 3401.00000 3338.34045  1.84% 51102 24489s
H   95   127                    3374.0000000 3339.17542  1.03% 41495 28361s
H   96   127                    3370.0000000 3339.20691  0.91% 41149 28362s
H   97   127                    3369.0000000 3339.87371  0.86% 41003 28362s
H  103   125                    3364.0000000 3339.87371  0.72% 39441 28363s
H  107   125                    3363.0000000 3339.87371  0.69% 38530 28364s
H  111   125                    3362.0000000 3339.87371  0.66% 37954 28364s
   117   125 3346.93497    7  205 3362.00000 3339.87371  0.66% 37024 28365s
   127   148 3342.60236    8  235 3362.00000 3339.87718  0.66% 35507 28949s
   159   179 3346.87403    9  255 3362.00000 3342.90740  0.57% 31104 29354s
   170   179 3348.16305    9  274 3362.00000 3345.81419  0.48% 30710 29355s
   191   205 3351.23072   10  249 3362.00000 3346.08578  0.47% 29252 29859s
   226   236 3348.52432   11  223 3362.00000 3347.92438  0.42% 27501 30440s
   259   267 3350.52486   12  213 3362.00000 3348.82721  0.39% 27667 31174s
   291   267 3351.67394   10  233 3362.00000 3350.78216  0.33% 27102 31175s
   298   297 3353.28563    8  260 3362.00000 3350.82254  0.33% 26753 31721s
   338   326 3351.82862    7  227 3362.00000 3351.05275  0.33% 26115 32182s
   379   356 3351.98740    9  209 3362.00000 3351.52159  0.31% 25267 32804s
   413   407 3352.79194   10  229 3362.00000 3352.06649  0.30% 25640 33304s
   489   473 3353.90915    7  200 3362.00000 3352.40722  0.29% 24811 34434s
   576   533 3352.64666    7  204 3362.00000 3352.64666  0.28% 24353 35364s
   662   605 3353.46106    8  185 3362.00000 3353.45850  0.25% 23645 35774s
   768   682 3354.10191   10  161 3362.00000 3353.94105  0.24% 22948 36494s
   868   764 3357.56502   11  190 3362.00000 3354.29455  0.23% 22783 36957s
   994   827 3358.83266   12  217 3362.00000 3354.96923  0.21% 21769 37701s
  1096   885 3359.41890    9  147 3362.00000 3355.27860  0.20% 21643 45545s
  1200   900     cutoff   10      3362.00000 3355.65457  0.19% 22236 45927s
  1274   943 3355.95428   13  232 3362.00000 3355.95428  0.18% 22036 46343s
  1373   978 3357.91370   17  215 3362.00000 3356.23952  0.17% 21853 46817s
  1489  1023 3358.48778    8  183 3362.00000 3356.49740  0.16% 21384 47277s
  1594  1068 3356.67204   11  163 3362.00000 3356.67204  0.16% 21069 47920s
  1711  1135 3358.05339   12   89 3362.00000 3356.76280  0.16% 20687 48369s
  1778  1135 3357.30420   15  193 3362.00000 3357.04916  0.15% 20547 48370s
  1835  1151 3358.98383   14  120 3362.00000 3357.10694  0.15% 20585 49050s
  1971  1193     cutoff   15      3362.00000 3357.48952  0.13% 20472 110437s
  2105  1219 3359.74869   14  161 3362.00000 3357.63032  0.13% 20749 168826s
  2238  1224     cutoff   12      3362.00000 3357.86900  0.12% 20927 169355s
  2367  1251     cutoff   11      3362.00000 3358.03898  0.12% 20689 170689s
  2524  1273 3359.65418   15  119 3362.00000 3358.09238  0.12% 20497 171179s
  2678  1278     cutoff   15      3362.00000 3358.44388  0.11% 20256 172035s
  2834  1290     cutoff   11      3362.00000 3358.67061  0.10% 19919 172615s
  2992  1300 3359.66534   18   57 3362.00000 3358.84547  0.09% 19570 174421s
  3143  1311 infeasible   15      3362.00000 3358.99335  0.09% 19294 174808s
  3303  1313 3359.14739   19  152 3362.00000 3359.14537  0.08% 18928 175282s
  3460  1320 3359.63761    9  208 3362.00000 3359.29189  0.08% 18752 175722s
  3613  1311 3359.85906   16  210 3362.00000 3359.37789  0.08% 18562 176397s
  3769  1328 3359.82635   20  149 3362.00000 3359.50029  0.07% 18230 177099s
  3921  1356 3359.68068   17  120 3362.00000 3359.57972  0.07% 18018 177718s
  4078  1364     cutoff   15      3362.00000 3359.66466  0.07% 17831 178090s
  4234  1350     cutoff   13      3362.00000 3359.76969  0.07% 17640 178549s
  4390  1322     cutoff   10      3362.00000 3359.85097  0.06% 17390 178944s
  4510  1322 3359.90510   20  122 3362.00000 3359.90510  0.06% 17159 178945s
  4547  1295     cutoff   21      3362.00000 3359.91767  0.06% 17117 179503s
  4701  1284     cutoff   24      3362.00000 3360.00778  0.06% 16868 179916s
  4855  1286 3360.64010   13  176 3362.00000 3360.07064  0.06% 16647 180214s
  5011  1271 3360.22461   14  118 3362.00000 3360.16147  0.05% 16442 180565s
  5168  1237 3360.54390   23   95 3362.00000 3360.22062  0.05% 16167 180921s
  5324  1197     cutoff   16      3362.00000 3360.26614  0.05% 15941 181626s
  5478  1170 3360.91183   13  167 3362.00000 3360.35140  0.05% 15738 181851s
  5637  1113     cutoff   26      3362.00000 3360.38381  0.05% 15480 182160s
  5793  1041     cutoff   25      3362.00000 3360.43607  0.05% 15268 182639s
  5937  1041     cutoff   17      3362.00000 3360.46083  0.05% 15041 182640s
  5949   962     cutoff    9      3362.00000 3360.47563  0.05% 15032 182873s
  6103   915     cutoff   21      3362.00000 3360.53466  0.04% 14805 183337s
  6260   869     cutoff   10      3362.00000 3360.57754  0.04% 14572 183542s
  6420   792     cutoff   30      3362.00000 3360.60405  0.04% 14308 183694s
  6485   792 3360.90508   19   66 3362.00000 3360.61938  0.04% 14195 183695s
  6580   690     cutoff   30      3362.00000 3360.63832  0.04% 14043 184035s
  6736   589     cutoff   29      3362.00000 3360.69580  0.04% 13799 184241s
  6894   493     cutoff   22      3362.00000 3360.74947  0.04% 13557 184441s
  7052   400     cutoff   23      3362.00000 3360.79218  0.04% 13331 184523s
  7212   297     cutoff   27      3362.00000 3360.82246  0.04% 13075 184675s
* 7279   297              38    3361.0000000 3360.84124  0.00% 12976 184675s

Cutting planes:
  Gomory: 226
  Cover: 66
  Implied bound: 6479
  Projected implied bound: 1435
  MIR: 19519
  Flow cover: 2930
  Zero half: 330
  RLT: 11
  Relax-and-lift: 143

Explored 7372 nodes (99263307 simplex iterations) in 184677.99 seconds (175708.14 work units)
Thread count was 32 (of 128 available processors)

Solution count 10: 3361 3362 3363 ... 3429

Optimal solution found (tolerance 1.00e-04)
Best objective 3.361000000000e+03, best bound 3.361000000000e+03, gap 0.0000%
True
